c colouring generated by benchmark framework
p edge 385 19095
v 1 1
v 2 23
v 3 9
v 4 5
v 5 0
v 6 3
v 7 13
v 8 1
v 9 2
v 10 21
v 11 22
v 12 6
v 13 2
v 14 8
v 15 1
v 16 11
v 17 2
v 18 9
v 19 21
v 20 11
v 21 2
v 22 4
v 23 13
v 24 5
v 25 0
v 26 1
v 27 22
v 28 13
v 29 8
v 30 1
v 31 2
v 32 11
v 33 20
v 34 6
v 35 4
v 36 17
v 37 5
v 38 11
v 39 2
v 40 19
v 41 13
v 42 21
v 43 6
v 44 4
v 45 25
v 46 20
v 47 8
v 48 1
v 49 18
v 50 7
v 51 12
v 52 1
v 53 11
v 54 2
v 55 15
v 56 10
v 57 1
v 58 17
v 59 15
v 60 19
v 61 5
v 62 11
v 63 2
v 64 13
v 65 10
v 66 3
v 67 6
v 68 21
v 69 1
v 70 21
v 71 22
v 72 13
v 73 10
v 74 3
v 75 22
v 76 15
v 77 19
v 78 5
v 79 11
v 80 17
v 81 15
v 82 19
v 83 12
v 84 11
v 85 0
v 86 3
v 87 6
v 88 23
v 89 20
v 90 10
v 91 3
v 92 6
v 93 8
v 94 20
v 95 10
v 96 3
v 97 5
v 98 11
v 99 14
v 100 2
v 101 17
v 102 23
v 103 16
v 104 24
v 105 0
v 106 18
v 107 9
v 108 4
v 109 19
v 110 10
v 111 3
v 112 7
v 113 12
v 114 21
v 115 5
v 116 0
v 117 5
v 118 6
v 119 5
v 120 9
v 121 4
v 122 15
v 123 5
v 124 3
v 125 7
v 126 6
v 127 0
v 128 18
v 129 2
v 130 11
v 131 24
v 132 11
v 133 14
v 134 11
v 135 8
v 136 8
v 137 3
v 138 19
v 139 7
v 140 21
v 141 7
v 142 0
v 143 16
v 144 12
v 145 10
v 146 9
v 147 24
v 148 14
v 149 15
v 150 6
v 151 11
v 152 3
v 153 12
v 154 11
v 155 2
v 156 2
v 157 6
v 158 7
v 159 1
v 160 10
v 161 18
v 162 8
v 163 4
v 164 16
v 165 6
v 166 17
v 167 9
v 168 0
v 169 5
v 170 11
v 171 14
v 172 23
v 173 1
v 174 18
v 175 13
v 176 4
v 177 9
v 178 13
v 179 10
v 180 5
v 181 15
v 182 6
v 183 7
v 184 10
v 185 7
v 186 2
v 187 12
v 188 0
v 189 13
v 190 6
v 191 7
v 192 14
v 193 4
v 194 15
v 195 3
v 196 25
v 197 1
v 198 9
v 199 24
v 200 9
v 201 12
v 202 16
v 203 11
v 204 21
v 205 15
v 206 17
v 207 10
v 208 14
v 209 1
v 210 25
v 211 13
v 212 15
v 213 23
v 214 1
v 215 10
v 216 11
v 217 5
v 218 15
v 219 16
v 220 5
v 221 23
v 222 6
v 223 8
v 224 5
v 225 11
v 226 25
v 227 10
v 228 4
v 229 2
v 230 3
v 231 4
v 232 12
v 233 3
v 234 19
v 235 1
v 236 22
v 237 1
v 238 2
v 239 0
v 240 2
v 241 4
v 242 15
v 243 2
v 244 9
v 245 4
v 246 16
v 247 6
v 248 18
v 249 1
v 250 3
v 251 12
v 252 11
v 253 14
v 254 0
v 255 10
v 256 9
v 257 15
v 258 19
v 259 18
v 260 10
v 261 3
v 262 22
v 263 1
v 264 11
v 265 14
v 266 9
v 267 6
v 268 19
v 269 18
v 270 1
v 271 6
v 272 16
v 273 10
v 274 3
v 275 22
v 276 11
v 277 5
v 278 0
v 279 10
v 280 3
v 281 22
v 282 11
v 283 2
v 284 25
v 285 4
v 286 9
v 287 15
v 288 19
v 289 6
v 290 14
v 291 17
v 292 18
v 293 11
v 294 9
v 295 16
v 296 15
v 297 1
v 298 25
v 299 10
v 300 5
v 301 14
v 302 9
v 303 22
v 304 1
v 305 3
v 306 14
v 307 19
v 308 4
v 309 12
v 310 16
v 311 16
v 312 10
v 313 7
v 314 17
v 315 18
v 316 16
v 317 10
v 318 6
v 319 1
v 320 18
v 321 20
v 322 15
v 323 9
v 324 17
v 325 5
v 326 3
v 327 9
v 328 2
v 329 3
v 330 21
v 331 9
v 332 25
v 333 20
v 334 10
v 335 25
v 336 20
v 337 10
v 338 24
v 339 9
v 340 5
v 341 17
v 342 15
v 343 23
v 344 17
v 345 15
v 346 19
v 347 9
v 348 17
v 349 15
v 350 25
v 351 3
v 352 20
v 353 17
v 354 5
v 355 0
v 356 6
v 357 8
v 358 0
v 359 10
v 360 3
v 361 0
v 362 0
v 363 0
v 364 9
v 365 17
v 366 8
v 367 6
v 368 8
v 369 1
v 370 0
v 371 20
v 372 10
v 373 5
v 374 24
v 375 2
v 376 13
v 377 25
v 378 1
v 379 13
v 380 6
v 381 4
v 382 21
v 383 17
v 384 3
v 385 7
